(set-info :source  loris-7.ddns.comp.nus.edu.sg/~project/hip/) 
;Variables declarations
(declare-fun m_4688 () Int)
(declare-fun m_4771 () Int)
(declare-fun size2_4667 () Int)
(declare-fun size1_4664 () Int)
(declare-fun m_4671 () Int)
(declare-fun m_4754 () Int)
(declare-fun size1_4840 () Int)
(declare-fun size2_4843 () Int)
(declare-fun flted_81_5324 () Int)
(declare-fun bm () Int)
(declare-fun am () Int)
(declare-fun cm () Int)
(declare-fun dm () Int)
(declare-fun m_4588 () Int)
(declare-fun flted_161_4579 () Int)
(declare-fun m_4565 () Int)
(declare-fun m_4600 () Int)
(declare-fun size2_4551 () Int)
(declare-fun size1_4548 () Int)
(declare-fun m () Int)
;Relations declarations
;Axioms assertions
;Antecedent
(assert (<= 0 m_4754))
(assert (<= 0 size1_4840))
(assert (<= 0 size2_4843))
(assert (<= 0 m_4771))
(assert (<= 0 m_4688))
(assert (= m_4771 m_4688))
(assert (<= 0 m_4671))
(assert (<= 0 size2_4667))
(assert (= m_4688 size2_4667))
(assert (<= 0 size1_4664))
(assert (<= 0 flted_81_5324))
(assert (= m_4771 (+ (+ size2_4843 1) size1_4840)))
(assert (= m_4588 (+ (+ size2_4667 1) size1_4664)))
(assert (= m_4671 size1_4664))
(assert (= m_4754 m_4671))
(assert (= am m_4754))
(assert (= bm size1_4840))
(assert (= cm size2_4843))
(assert (<= 0 dm))
(assert (<= 0 cm))
(assert (<= 0 bm))
(assert (<= 0 am))
(assert (= flted_81_5324 (+ (+ (+ (+ dm bm) 3) am) cm)))
(assert (<= 0 m_4600))
(assert (= dm m_4600))
(assert (<= 0 m_4588))
(assert (<= 0 flted_161_4579))
(assert (= m_4588 flted_161_4579))
(assert (<= 0 m_4565))
(assert (= flted_161_4579 (+ 1 m_4565)))
(assert (= m_4565 size1_4548))
(assert (<= 0 size1_4548))
(assert (= m_4600 size2_4551))
(assert (<= 0 size2_4551))
(assert (= m (+ (+ size2_4551 1) size1_4548)))
;Negation of Consequence
(assert (not (<= 0 m)))
(check-sat)